r431.ib.bridges2.psc.edu
2024-11-07 23:24:09.915044
Set parameter Username
Set parameter LicenseID to value 762805
Set parameter TokenServer to value "br017.ib.bridges2.psc.edu"
Set parameter LogFile to value "result1354/grblog_r431.ib.bridges2.psc.edu_RelaxFalse_N-1_PSPS_SpanFalse_PFlow_Lazy1_1354_inst1.txt"
Gurobi Optimizer version 11.0.2 build v11.0.2rc0 (linux64 - "Red Hat Enterprise Linux 8.10 (Ootpa)")

CPU model: AMD EPYC 7742 64-Core Processor, instruction set [SSE2|AVX|AVX2]
Thread count: 128 physical cores, 128 logical processors, using up to 32 threads

Optimize a model with 12418040 rows, 10522515 columns and 50896779 nonzeros
Model fingerprint: 0xf6ce0c39
Variable types: 10519170 continuous, 3345 integer (3345 binary)
Coefficient statistics:
  Matrix range     [1e+00, 3e+03]
  Objective range  [1e+00, 1e+01]
  Bounds range     [1e+00, 1e+00]
  RHS range        [1e+00, 4e+04]
Presolve removed 814309 rows and 482 columns (presolve time = 5s) ...
Presolve removed 3821372 rows and 2561939 columns (presolve time = 10s) ...
Presolve removed 4320212 rows and 2894324 columns (presolve time = 15s) ...
Presolve removed 4425865 rows and 2965646 columns (presolve time = 20s) ...
Presolve removed 4439136 rows and 2973589 columns (presolve time = 25s) ...
Presolve removed 4439136 rows and 2973589 columns (presolve time = 31s) ...
Presolve removed 4440108 rows and 2973589 columns (presolve time = 35s) ...
Presolve removed 4443557 rows and 2980000 columns (presolve time = 42s) ...
Presolve removed 5507198 rows and 5101106 columns (presolve time = 46s) ...
Presolve removed 5507198 rows and 5491290 columns (presolve time = 50s) ...
Presolve removed 5511592 rows and 5492063 columns (presolve time = 55s) ...
Presolve removed 5511592 rows and 5492063 columns (presolve time = 60s) ...
Presolve removed 5511592 rows and 5492063 columns (presolve time = 65s) ...
Presolve removed 5511592 rows and 5492063 columns (presolve time = 70s) ...
Presolve removed 5511592 rows and 5492063 columns (presolve time = 75s) ...
Presolve removed 5511592 rows and 5492063 columns (presolve time = 80s) ...
Presolve removed 5511592 rows and 5492063 columns (presolve time = 85s) ...
Presolve removed 5511592 rows and 5492063 columns (presolve time = 90s) ...
Presolve removed 5511592 rows and 5492063 columns (presolve time = 95s) ...
Presolve removed 6450116 rows and 5492087 columns (presolve time = 100s) ...
Presolve removed 6451191 rows and 5492651 columns (presolve time = 105s) ...
Presolve removed 6451191 rows and 5492651 columns (presolve time = 112s) ...
Presolve removed 7141460 rows and 5492651 columns (presolve time = 116s) ...
Presolve removed 7141460 rows and 5493285 columns (presolve time = 121s) ...
Presolve removed 7152706 rows and 5530877 columns (presolve time = 125s) ...
Presolve removed 7171994 rows and 5531100 columns (presolve time = 130s) ...
Presolve removed 7172260 rows and 5531268 columns (presolve time = 136s) ...
Presolve removed 7177547 rows and 5531268 columns (presolve time = 140s) ...
Presolve removed 7182860 rows and 5541901 columns (presolve time = 146s) ...
Presolve removed 7182952 rows and 5541924 columns (presolve time = 150s) ...
Presolve removed 7188185 rows and 5541945 columns (presolve time = 155s) ...
Presolve removed 7188189 rows and 5541949 columns (presolve time = 160s) ...
Presolve removed 7188189 rows and 5541949 columns (presolve time = 165s) ...
Presolve removed 7398462 rows and 5735381 columns (presolve time = 171s) ...
Presolve removed 7398463 rows and 5735381 columns (presolve time = 176s) ...
Presolve removed 7398463 rows and 5735523 columns (presolve time = 180s) ...
Presolve removed 7398469 rows and 5735542 columns (presolve time = 185s) ...
Presolve removed 7401654 rows and 5735732 columns (presolve time = 190s) ...
Presolve removed 7401656 rows and 5735734 columns (presolve time = 196s) ...
Presolve removed 7762881 rows and 5735983 columns (presolve time = 201s) ...
Presolve removed 7762905 rows and 5735993 columns (presolve time = 205s) ...
Presolve removed 7763088 rows and 5735993 columns (presolve time = 211s) ...
Presolve removed 7763088 rows and 5735996 columns (presolve time = 215s) ...
Presolve removed 7763089 rows and 5736008 columns (presolve time = 220s) ...
Presolve removed 7763089 rows and 5736008 columns (presolve time = 225s) ...
Presolve removed 7763089 rows and 5736008 columns (presolve time = 230s) ...
Presolve removed 7763089 rows and 5736008 columns (presolve time = 235s) ...
Presolve removed 7763089 rows and 5736008 columns (presolve time = 240s) ...
Presolve removed 7763090 rows and 5736007 columns
Presolve time: 242.32s
Presolved: 4654950 rows, 4786508 columns, 23156124 nonzeros
Extracted 3390112 lazy constraints
Variable types: 4784426 continuous, 2082 integer (2082 binary)
Root relaxation presolved: 1264301 rows, 4785955 columns, 3793904 nonzeros

Deterministic concurrent LP optimizer: primal simplex, dual simplex, and barrier
Showing barrier log only...

Root barrier log...

Ordering time: 0.01s

Barrier statistics:
 AA' NZ     : 3.213e+04
 Factor NZ  : 1.120e+05 (roughly 7 MB of memory)
 Factor Ops : 1.837e+06 (less than 1 second per iteration)
 Threads    : 30

                  Objective                Residual
Iter       Primal          Dual         Primal    Dual     Compl     Time
   0   1.50350461e+05 -1.33746342e+06  1.07e+04 0.00e+00  6.72e+02   257s
   1   7.44772201e+04 -6.87770386e+05  4.74e+03 3.86e+00  2.83e+02   257s
   2   1.58352159e+04 -3.22409304e+05  5.80e+02 4.46e-01  4.29e+01   257s
   3   8.24787038e+03 -1.01703176e+05  5.62e+01 9.65e-03  6.61e+00   257s
   4   7.10945590e+03 -2.67202256e+04  8.42e+00 1.42e-13  1.67e+00   257s
   5   5.92732706e+03 -8.17084906e+03  4.50e-01 8.53e-14  6.67e-01   257s
   6   5.20926740e+03 -2.06113120e+03  2.30e-01 4.09e-14  3.43e-01   258s
   7   4.70184653e+03  6.35057042e+01  1.67e-01 2.58e-14  2.19e-01   258s

Barrier performed 7 iterations in 257.50 seconds (189.72 work units)
Barrier solve interrupted - model solved by another algorithm

Concurrent spin time: 0.09s

Solved with primal simplex

Root simplex log...

Iteration    Objective       Primal Inf.    Dual Inf.      Time
    4423    2.6443486e+03   0.000000e+00   0.000000e+00    258s

Use crossover to convert LP symmetric solution to basic solution...

Root crossover log...

    2597 DPushes remaining with DInf 0.0000000e+00               258s
       0 DPushes remaining with DInf 0.0000000e+00               259s

  127438 PPushes remaining with PInf 0.0000000e+00               259s
       0 PPushes remaining with PInf 0.0000000e+00               259s

  Push phase complete: Pinf 0.0000000e+00, Dinf 5.2891719e-15    259s


Root simplex log...

Iteration    Objective       Primal Inf.    Dual Inf.      Time
  132846    2.6443486e+03   0.000000e+00   0.000000e+00    259s
  132846    2.6443486e+03   0.000000e+00   0.000000e+00    260s

Root relaxation: objective 2.644349e+03, 132846 iterations, 8.86 seconds (4.48 work units)

    Nodes    |    Current Node    |     Objective Bounds      |     Work
 Expl Unexpl |  Obj  Depth IntInf | Incumbent    BestBd   Gap | It/Node Time

     0     0 2644.34856    0   35          - 2644.34856      -     -  263s
     0     0 2644.34856    0   35          - 2644.34856      -     -  266s
     0     0 2644.34856    0   35          - 2644.34856      -     -  271s
     0     0 2644.34856    0   35          - 2644.34856      -     -  275s
     0     0 2644.34856    0   35          - 2644.34856      -     -  281s
     0     0 2644.34856    0   35          - 2644.34856      -     -  286s
     0     0 2644.34856    0   35          - 2644.34856      -     -  291s
     0     0 2644.34856    0   35          - 2644.34856      -     -  295s
     0     0 2644.34856    0   35          - 2644.34856      -     -  300s
     0     0 2644.34856    0   35          - 2644.34856      -     -  305s
     0     0 2655.16429    0    6          - 2655.16429      -     -  315s
     0     0 2655.17093    0    6          - 2655.17093      -     -  321s
     0     0 2655.17093    0    6          - 2655.17093      -     -  326s
     0     0 2655.18987    0    6          - 2655.18987      -     -  327s
     0     0 2655.23025    0   18          - 2655.23025      -     -  328s
     0     0 2655.23061    0   19          - 2655.23061      -     -  330s
     0     0 2655.25906    0   17          - 2655.25906      -     -  334s
     0     0 2655.26498    0   17          - 2655.26498      -     -  337s
     0     0 2655.26498    0   17          - 2655.26498      -     -  341s
     0     0 2655.26498    0   17          - 2655.26498      -     -  346s
     0     0 2658.26008    0   22          - 2658.26008      -     -  347s
     0     0 2658.26021    0   23          - 2658.26021      -     -  348s
     0     0 2658.26588    0   24          - 2658.26588      -     -  359s
     0     0 2658.27185    0   24          - 2658.27185      -     -  361s
     0     0 2658.27185    0   23          - 2658.27185      -     -  363s
     0     0 2658.27185    0   26          - 2658.27185      -     -  365s
     0     0 2658.27185    0   32          - 2658.27185      -     -  375s
     0     0 2658.27848    0   30          - 2658.27848      -     -  379s
     0     0 2658.27848    0   24          - 2658.27848      -     -  383s
     0     0 2658.27951    0   24          - 2658.27951      -     -  386s
     0     0 2664.27074    0   25          - 2664.27074      -     -  390s
     0     0 2664.27973    0   29          - 2664.27973      -     -  396s
     0     0 2664.27973    0   29          - 2664.27973      -     -  400s
     0     0 2664.27973    0   29          - 2664.27973      -     -  401s
     0     0 2664.27973    0   29          - 2664.27973      -     -  405s
     0     0 2664.28152    0   30          - 2664.28152      -     -  411s
     0     0 2664.28152    0   31          - 2664.28152      -     -  414s
     0     0 2664.28152    0   31          - 2664.28152      -     -  418s
     0     0 2665.05764    0   23          - 2665.05764      -     -  420s
     0     0 2665.07491    0   22          - 2665.07491      -     -  424s
     0     0 2665.07668    0   22          - 2665.07668      -     -  427s
     0     0 2665.08143    0   20          - 2665.08143      -     -  429s
     0     0 2665.08145    0   23          - 2665.08145      -     -  431s
     0     0 2665.08516    0   29          - 2665.08516      -     -  434s
     0     0 2665.08533    0   29          - 2665.08533      -     -  437s
     0     0 2665.25358    0   29          - 2665.25358      -     -  439s
     0     0 2665.25515    0   30          - 2665.25515      -     -  443s
     0     0 2665.43029    0   30          - 2665.43029      -     -  446s
     0     0 2665.43029    0   30          - 2665.43029      -     -  448s
     0     0 2665.43029    0   32          - 2665.43029      -     -  451s
     0     0 2665.43029    0   32          - 2665.43029      -     -  455s
     0     0 2669.28394    0   30          - 2669.28394      -     -  456s
     0     0 2669.28442    0   31          - 2669.28442      -     -  458s
     0     0 2669.28609    0   33          - 2669.28609      -     -  461s
     0     0 2672.58632    0   33          - 2672.58632      -     -  465s
     0     0 2672.58632    0   33          - 2672.58632      -     -  470s
     0     0 2672.58632    0   36          - 2672.58632      -     -  474s
     0     0 2672.58632    0   33          - 2672.58632      -     -  478s
     0     0 2672.58632    0   33          - 2672.58632      -     -  482s
     0     0 2672.58632    0   35          - 2672.58632      -     -  483s
     0     0 2672.58632    0   36          - 2672.58632      -     -  486s
     0     0 2672.58632    0   36          - 2672.58632      -     -  490s
     0     0 2672.58632    0   36          - 2672.58632      -     -  491s
     0     0 2672.58632    0   32          - 2672.58632      -     -  495s
     0     0 2672.58632    0   32          - 2672.58632      -     -  503s
     0     0 2672.58632    0   32          - 2672.58632      -     -  505s
     0     0 2672.58632    0   32          - 2672.58632      -     -  520s
     0     0 2672.58632    0   32          - 2672.58632      -     -  525s
     0     2 2672.58632    0   32          - 2672.58632      -     -  538s
     1     4 2674.10275    1   31          - 2673.30156      -  46.0  540s
    15    32 2681.30527    4   25          - 2679.78780      -  12.7  547s
    31    64 2685.60848    5   13          - 2679.78868      -  13.6  552s
    63    96 2685.62458    6   13          - 2679.79072      -  11.3  555s
   127   160 2685.63548    8   12          - 2679.81115      -  11.0  561s
   175   192 2679.92595    7   20          - 2679.81711      -  10.1  565s
   264   310 2685.63675   12   14          - 2679.85843      -  10.4  572s
   309   360 2685.64454   14    9          - 2679.85912      -  10.0  575s
   413   464 2685.64585   17   12          - 2679.85912      -   8.9  580s
   524   572 2685.66365   21    8          - 2679.85912      -   8.3  587s
   571   623 2685.66610   22    8          - 2679.85912      -   8.1  590s
   661   676 2683.23625   23   18          - 2679.85912      -   8.0  595s
   723   783 2685.68197   25    9          - 2679.85912      -   7.8  602s
   782   865 2685.68406   27   13          - 2679.85912      -   7.7  608s
   864   962 2685.68459   28   10          - 2679.85912      -   7.6  615s
   961  1053 2685.68758   32    9          - 2679.85912      -   7.8  624s
  1052  1146 2685.69111   38    8          - 2679.85912      -   7.8  631s
  1145  1257 2685.82097   41    7          - 2679.85912      -   7.8  637s
  1256  1374 2686.11347   45   10          - 2679.85912      -   7.6  646s
  1373  1461 2686.21103   50    4          - 2679.85912      -   7.5  653s
  1460  1539 2686.22089   55    7          - 2679.85912      -   7.4  665s
  1538  1645 2686.22146   57    3          - 2679.85912      -   7.6  676s
  1644  1754 2686.22826   63    5          - 2679.85912      -   7.6  683s
